(set-info :smt-lib-version 2.6)
(set-logic QF_BV)
(set-info :source make.model)
(set-info :category "industrial")
(set-info :status sat)
(declare-const P0 Bool)
(declare-const P1 Bool)
(declare-const P2 Bool)
(declare-const P3 Bool)
(declare-const P4 Bool)
(declare-const P5 Bool)
(declare-const P6 Bool)
(declare-const P7 Bool)
(declare-const P8 Bool)
(declare-const P9 Bool)
(assert (or (not (= P3 true)) (not (= P2 true))))
(check-sat)
(exit)
